c User generated cnf file
p cnf 15 62
7 2 -10 0 
15 12 -12 0 
14 -13 5 0 
9 15 -4 0 
3 10 -10 0 
14 11 -10 0 
10 5 -2 0 
4 -3 2 0 
14 15 -2 0 
2 1 -14 0 
1 10 -12 0 
14 -13 3 0 
15 -11 12 0 
5 4 -4 0 
3 -8 12 0 
10 14 -11 0 
7 -12 5 0 
1 -14 13 0 
7 -14 11 0 
13 -5 6 0 
7 -2 9 0 
13 7 -14 0 
2 -3 15 0 
14 8 -14 0 
2 9 -7 0 
2 10 -11 0 
6 -5 11 0 
3 -10 11 0 
15 -5 3 0 
5 -3 15 0 
14 -5 13 0 
7 15 -10 0 
10 -5 11 0 
2 1 -7 0 
2 2 -14 0 
14 -2 8 0 
11 -14 7 0 
5 -8 4 0 
12 -13 14 0 
4 -10 9 0 
3 -15 15 0 
4 4 -6 0 
14 6 -8 0 
15 -12 10 0 
12 10 -15 0 
7 -2 11 0 
15 -15 3 0 
1 -4 13 0 
7 11 -4 0 
14 -10 6 0 
12 -9 11 0 
8 -4 6 0 
3 10 -5 0 
4 -1 5 0 
9 -9 7 0 
11 10 -8 0 
1 -2 1 0 
7 12 -7 0 
9 11 -1 0 
14 -7 6 0 
1 -4 2 0 
12 9 -11 0 
